
50
127589

4146 4148
2877 2878
8448 8448
4437 4438
5286 5288
5511 5513
3390 3390
6393 6395
9000 9001
720 720
5610 5610
2640 2641
6555 6557
6234 6234
456 458
1128 1130
5283 5284
8586 8587
7977 7977
8238 8239
1371 1371
3504 3506
5769 5770
3663 3665
2307 2307
9219 9221
6351 6353
3981 3981
4761 4761
6996 6996
7593 7593
7794 7796
3345 3345
9675 9677
7629 7631
2706 2706
1719 1720
4302 4302
2604 2606
8775 8776
93 94
8178 8180
1617 1619
8118 8119
4326 4328
1317 1318
9852 9854
4188 4190
9783 9784
3225 3225
